44 120
10 34 37 38 39
32 41
6 8 34 38 41 42
19 23 38 42
11 26 29 35
8 22 27 31 37 42
2 10 14 15 40
15 17 24 31
2 5 16 18 21 29 31 33
13 22 28 29 30 43
0 6 24
4 18 20 37
17 23 28
9 21 31 34 41
6 18 29
6 7 23 30 32 39
8 17 21 23 27 31 32 35 40
7 12 16 19 20 22 26 28 30 33
8 11 14 22 26 37
3 17 24 43
11 17 21 22 24 37 38 43
8 13 16 20 29 30
5 9 17 18 20 28 35
3 12 15 16 27
7 10 19 20 27 34 42
31 33 43
4 17 18 31 32 34
5 16 23 24
9 12 17 22
4 8 9 14 21 41 43
9 15 17 21 40
5 7 8 13 16 25 26 34 40
1 15 16 26 36 37 40
8 17 25 42
0 2 13 24 26 31 40
4 16 22 39
32
0 5 11 18 20 32 40 43
0 2 3 20 40 42
0 15 35
6 16 30 31 32 34 37 38
1 2 13 29 43
2 3 5 24 33 38
9 19 20 25 29 37 41
